db/data/30338256061890527110791810446951724515.z3.out
sat
-------------------
1279.688998111
